p cnf 100 30
x 5 8 9 -11 -13 -16 -17 -18 20 -22 -23 24 -26 -27 -30 31 32 -34 35 -37 -38 43 47 -52 53 54 -58 65 66 -67 68 -69 71 -73 74 76 77 -78 -82 85 -86 88 -90 91 92 -93 94 -95 96 98 -99 0
x 1 -2 5 -8 10 -11 12 -13 -15 16 17 18 20 22 -24 -28 31 32 33 35 -36 37 38 39 41 -42 -43 47 -51 57 -60 63 68 69 -71 74 76 77 -78 82 84 87 -90 91 92 96 -97 0
x 1 -2 -4 -5 -6 18 22 24 -29 -30 -32 33 -34 40 -44 -45 46 47 -50 51 -52 -53 -54 57 58 -59 61 -62 -71 73 77 82 -86 -87 -92 96 -98 -99 100 0
x -3 4 5 -6 10 11 -13 16 -19 22 -23 24 -25 26 27 -30 -32 33 -43 47 48 -50 51 52 -53 56 -57 -60 63 -64 65 -68 69 71 73 75 -80 -81 83 86 -87 -88 90 92 96 97 -99 100 0
x 3 4 8 9 15 16 18 19 26 27 -29 -31 -32 34 35 38 -39 41 42 44 46 48 52 53 -55 -57 58 59 -62 -66 69 70 -72 -74 -75 76 -77 78 -79 -82 -85 87 -90 93 96 -99 0
x -1 2 3 -4 -5 -9 -13 -14 16 -17 18 -19 -21 22 24 25 -28 30 -34 -36 37 -38 -39 -41 -42 43 49 50 52 54 55 56 59 -63 -69 -71 73 -75 77 -80 -81 85 87 -90 -91 92 96 98 99 100 0
x -1 -5 -9 -14 15 16 -18 19 20 22 23 25 -26 28 -30 -31 33 -34 -35 36 -38 -39 42 43 47 -48 49 -54 59 61 -62 -63 -65 -68 -69 70 -73 75 77 -80 -83 -84 -86 87 88 90 92 93 96 97 99 0
x -1 4 5 6 8 9 11 17 -18 -20 21 -26 27 28 29 30 31 32 37 38 39 40 44 45 -46 -49 50 -51 -52 53 55 59 60 61 -64 -65 -68 69 70 71 -72 -75 76 77 -79 -81 82 84 -85 -87 88 -90 -91 92 -96 -99 0
x -1 2 5 -6 -7 9 10 -11 14 15 18 -21 -23 -24 25 -26 -27 30 34 -35 -37 39 42 -50 -56 57 58 59 60 61 62 64 -65 -68 69 -70 -73 -78 -79 81 83 84 -86 -90 -92 -93 96 97 -99 -100 0
x 1 -3 -4 -6 7 -8 -10 -13 -14 15 17 18 19 -20 -26 -28 31 -32 34 35 39 -40 45 -46 -53 54 -56 61 -62 63 -64 -66 -68 -76 79 80 84 -85 86 87 -88 90 -91 -94 95 -97 99 0
x 1 2 -3 5 -6 -7 -12 14 -19 21 24 25 -31 32 -33 -37 -41 -43 -44 45 46 -47 52 -53 -56 -57 -60 61 -63 -68 -69 -70 71 72 -74 75 76 79 82 83 -84 88 90 -91 94 95 98 -99 -100 0
x -1 -5 7 -16 -18 -19 24 26 30 -32 -33 34 35 37 -40 -41 42 43 46 -48 -52 54 -56 -57 59 -61 -63 64 -67 68 -70 73 -74 -75 -76 -80 81 -83 -87 -88 91 -94 95 96 -98 -99 100 0
x -1 -4 -5 6 -7 8 -9 -10 11 13 16 18 -19 25 27 -35 38 41 43 44 -45 -47 48 -49 53 56 58 -59 63 -67 -68 -70 71 73 -74 -79 -80 -82 -84 85 86 87 89 -90 91 -93 -96 97 -99 -100 0
x -3 4 5 -9 -10 12 13 14 15 -18 -19 -20 22 24 -25 33 36 37 -39 -40 -42 44 47 -48 -50 51 -52 -53 -54 55 -56 60 -61 -64 -66 -68 -69 -70 73 -74 -75 -77 78 -79 -80 81 -83 84 86 -87 88 -89 -90 91 93 94 96 -98 -100 0
x -2 4 6 7 -10 -15 -16 -18 -21 -22 23 27 30 32 -33 34 37 -38 39 -46 50 51 53 -55 -56 -58 -60 64 67 68 70 -72 -74 -77 -80 81 82 83 -85 86 -87 -91 92 98 -99 100 0
x 6 -9 15 16 18 19 20 -22 24 27 28 30 -34 35 -38 -39 41 42 44 -46 -47 48 50 -52 53 -54 -55 56 57 60 -61 -62 -64 -65 66 -69 70 -74 76 77 -78 79 80 81 82 -87 89 -90 -91 95 96 97 -98 99 0
x -3 6 -8 -9 -14 15 16 17 19 -21 31 32 36 -41 -42 -44 -45 47 -52 56 58 -59 61 -62 -63 -64 65 66 -67 68 -70 72 75 78 83 85 86 88 -90 -91 93 94 97 -99 100 0
x 2 -3 4 -6 7 9 -12 -13 21 -22 -28 30 -32 33 37 39 -41 -42 -43 45 -48 -49 -50 51 53 54 -55 -57 -59 62 -66 69 -73 -75 76 -79 -80 81 -82 83 -84 -92 -93 98 0
x -4 -5 9 10 -12 17 -18 -19 20 -21 25 26 28 29 32 33 34 -36 -38 -39 -40 41 42 -46 -47 49 -50 -54 55 57 58 65 -68 69 70 -72 -73 75 -76 77 -78 80 81 -82 84 85 -86 -88 -92 -94 -95 96 97 100 0
x -2 5 6 -7 -8 9 13 -14 -15 -19 22 24 25 27 28 29 30 -31 36 -37 40 43 45 -49 52 53 -57 -60 62 63 64 -65 66 -70 -71 -72 81 -82 -83 84 88 91 -92 -96 -98 -99 0
x 2 -3 -5 -6 -7 8 -9 -10 -11 -12 13 -14 15 -17 19 24 25 26 29 -30 33 -34 -36 -37 -39 -43 44 45 46 48 49 50 -51 -52 -54 56 -57 -58 60 -61 64 -66 67 68 -71 75 -76 -78 80 -82 83 -85 88 -89 91 92 -93 94 95 99 100 0
x 1 3 -5 6 8 -9 -10 -11 13 -14 15 -16 17 -18 -19 21 -22 -23 -24 26 -28 31 33 -35 38 39 -40 42 -46 47 48 -50 -53 -54 55 -58 59 -60 -63 -65 66 -72 -75 76 77 78 79 82 85 -86 -87 89 -90 -91 -92 -93 94 96 0
x 1 2 -3 4 6 8 -9 -11 -13 14 -16 17 18 21 -23 -28 31 32 33 -34 -36 -37 38 44 -45 -46 49 -51 -53 54 -61 66 71 -74 75 77 -82 83 -84 86 88 93 98 -99 0
x -1 -5 -6 -9 12 -15 16 -18 -20 -22 -26 27 -30 31 32 33 -35 36 37 38 39 40 41 -42 -45 -48 -53 -54 55 56 -57 61 -62 -63 70 74 76 -77 81 -83 84 85 86 87 88 -92 96 97 -100 0
x -1 2 -4 -5 -6 7 8 9 10 -11 12 14 15 -16 -18 19 -22 23 27 31 32 -34 35 -37 38 -42 -43 45 -46 -47 -49 50 -51 -53 -54 -55 -57 61 -64 -66 -68 -70 -72 75 -76 -77 -78 -81 85 -90 -92 -94 95 97 -98 99 -100 0
x -2 3 -4 -8 -9 10 13 17 -20 -21 -22 23 -29 30 -34 -36 41 42 -44 48 49 50 53 54 -55 -58 60 -63 -64 65 66 67 -68 69 72 -74 -76 79 -80 -83 -85 -86 -87 90 91 94 95 -98 100 0
x 3 -6 7 10 11 -17 -19 -20 -21 27 -29 30 32 -34 35 -36 -42 -43 -46 -47 -48 -49 -52 53 56 57 58 59 -61 64 67 -68 -71 -73 75 76 -78 -80 -81 -82 -83 84 86 -87 88 -93 95 -99 0
x -3 4 8 -9 -11 -12 14 16 -17 -18 -19 -21 22 23 24 27 -28 -29 -31 33 34 35 37 40 41 -42 44 -47 48 49 -50 -53 -63 -69 -70 -71 -72 -74 -77 79 -80 81 -82 -84 -85 -86 88 -89 90 -91 -92 -93 -96 -97 98 0
x 3 4 -7 8 -9 -10 11 -14 15 20 22 24 25 26 -27 -28 -29 31 -32 -33 -36 37 -38 41 -42 -44 45 47 50 53 -54 55 58 60 63 64 -65 -67 68 70 -71 73 -78 -82 86 -87 90 91 93 -95 99 100 0
x -3 -5 8 9 10 -11 -14 15 17 18 -19 25 -26 28 30 -32 -33 34 35 37 -39 -40 41 42 45 -52 -54 -55 -57 61 -63 64 -68 69 -72 -73 74 -77 -79 -82 85 -87 88 90 95 -96 98 -99 0
g -40